
  22    4
  10   10   10   10

   0   0   0   0   0  10 2 3 4 5 7 8 9 10 11 12 
   5  10  10  10  10   4 20 19 17 6 
   5  10  10  10  10   5 21 18 17 16 13 
   7  10  10  10  10   4 20 18 16 13 
   7  10  10  10  10   5 20 17 16 15 14 
   1  10  10  10  10   3 18 16 13 
   1  10  10  10  10   3 17 16 13 
   4  10  10  10  10   4 18 17 16 15 
   5  10  10  10  10   4 19 16 15 14 
   6  10  10  10  10   2 20 13 
   3  10  10  10  10   3 21 19 14 
   5  10  10  10  10   3 21 19 14 
   2  10  10  10  10   2 15 14 
   2  10  10  10  10   1 22
   2  10  10  10  10   1 22
   5  10  10  10  10   1 22
   6  10  10  10  10   1 22
   2  10  10  10  10   1 22
  10  10  10  10  10   1 22
   1  10  10  10  10   1 22
   6  10  10  10  10   1 22
   0   0   0   0   0   0 
